unsat
(:added-eqs                   3859213
 :arith-eq-adapter            4732
 :arith-bound-propagations-lp 234086
 :arith-conflicts             582
 :arith-diseq                 287915
 :arith-fixed-eqs             360452
 :arith-lower                 186491
 :arith-make-feasible         100899
 :arith-max-columns           1452
 :arith-max-rows              851
 :arith-offset-eqs            138699
 :arith-upper                 399513
 :binary-propagations         15980838
 :conflicts                   32533
 :decisions                   2013301
 :del-clause                  34972
 :elim-unconstrained          2
 :max-memory                  59.59
 :memory                      37.80
 :minimized-lits              495738
 :mk-bool-var                 25061
 :mk-clause                   44969
 :mk-clause-binary            65245
 :num-allocs                  680724062
 :num-checks                  1
 :propagations                21420073
 :restarts                    175
 :rlimit-count                61820437
 :time                        18.85
 :total-time                  19.05)
